50
    1    94   485
    2     6   326
    3   416   248
    4   492   421
    5   149   322
    6   237   295
    7   457    43
    8   315   345
    9   446   455
   10   422   252
   11   291     9
   12   359   401
   13   167   122
   14    98    94
   15     7   238
   16    44    74
   17   334   215
   18   266   382
   19   494   367
   20   393   484
   21   133   299
   22   131   433
   23   428   182
   24   200    72
   25   117   374
   26   374   138
   27   220   356
   28   419   145
   29   294   495
   30   196    29
   31   497   199
   32   116   277
   33   408    97
   34    39   219
   35   207   242
   36    69   107
   37    37   122
   38   431    70
   39   226    98
   40   487   100
   41   272   145
   42    13   267
   43    81   472
   44   443   395
   45    58   213
   46   303   248
   47   264   487
   48    36   423
   49   224    29
   50   289   174
2080
